========================================================== 
File name: C:\DEGR\assets\definitions\MSRCPSP_Gen\100_40_64_10_B.def
Creation date: Wed May 03 10:39:41 CEST 2023
Website: http://imopse.ii.pwr.edu.pl/ 
Reference: 
Myszkowski P. B., Skowronski M. E., Olech L., Oslizlo K., 
Hybrid Ant Colony Optimization in solving Multi-Skill Resource-Constrained Project Scheduling Problem, 
Soft Computing, DOI: DOI 10.1007/s00500-014-1455-x 
========================================================== 
General characteristics: 
Tasks: 100
Resources: 40
Precedence relations: 63
Number of skill types: 10
========================================================== 
ResourceID 	 Salary 	 Skills 
1	 	 	70.3	 	 Q1: 3 	  Q7: 2 	  Q6: 2 	  Q2: 3 	 
2	 	 	22.8	 	 Q9: 0 	  Q4: 0 	  Q8: 0 	 
3	 	 	13.6	 	 Q7: 2 	  Q9: 2 	  Q4: 3 	  Q0: 0 	 
4	 	 	88.7	 	 Q0: 3 	  Q5: 0 	  Q6: 2 	 
5	 	 	89.6	 	 Q4: 0 	  Q0: 3 	  Q2: 3 	 
6	 	 	55.5	 	 Q5: 1 	  Q7: 3 	  Q9: 2 	  Q6: 2 	  Q3: 3 	  Q2: 3 	  Q0: 0 	  Q8: 2 	  Q1: 3 	 
7	 	 	41.9	 	 Q9: 1 	  Q2: 3 	  Q0: 1 	  Q5: 2 	  Q4: 0 	  Q6: 1 	  Q7: 3 	 
8	 	 	46.5	 	 Q3: 1 	  Q1: 1 	  Q5: 0 	  Q9: 3 	  Q0: 2 	  Q4: 3 	  Q6: 2 	  Q2: 3 	  Q8: 1 	 
9	 	 	17.5	 	 Q4: 1 	  Q9: 3 	  Q0: 1 	  Q2: 2 	  Q3: 2 	 
10	 	 	10.7	 	 Q6: 2 	 
11	 	 	33.9	 	 Q3: 3 	  Q8: 0 	 
12	 	 	90.2	 	 Q3: 2 	  Q0: 2 	  Q8: 0 	  Q2: 2 	  Q1: 2 	  Q5: 3 	 
13	 	 	72.4	 	 Q7: 3 	  Q0: 0 	  Q4: 2 	  Q9: 1 	  Q5: 1 	  Q3: 2 	  Q2: 1 	  Q8: 0 	  Q6: 0 	 
14	 	 	42.7	 	 Q6: 3 	  Q0: 1 	  Q2: 2 	  Q8: 1 	  Q4: 2 	 
15	 	 	15.4	 	 Q4: 0 	  Q6: 1 	  Q0: 3 	 
16	 	 	51.0	 	 Q2: 1 	  Q4: 1 	 
17	 	 	43.2	 	 Q4: 2 	  Q8: 3 	  Q2: 2 	  Q0: 2 	  Q6: 0 	  Q9: 3 	  Q5: 1 	  Q3: 2 	  Q1: 3 	 
18	 	 	89.5	 	 Q4: 1 	  Q1: 0 	  Q8: 3 	  Q3: 1 	  Q6: 1 	 
19	 	 	58.7	 	 Q4: 2 	  Q7: 3 	  Q1: 0 	  Q8: 0 	 
20	 	 	42.1	 	 Q8: 3 	  Q5: 0 	  Q3: 2 	  Q0: 1 	  Q9: 2 	  Q6: 0 	  Q7: 3 	 
21	 	 	44.7	 	 Q6: 0 	  Q9: 0 	  Q0: 1 	  Q7: 3 	  Q4: 3 	  Q3: 2 	  Q1: 3 	  Q8: 0 	  Q2: 1 	 
22	 	 	59.5	 	 Q9: 2 	  Q8: 2 	  Q5: 0 	  Q7: 3 	  Q6: 2 	  Q0: 3 	  Q2: 0 	  Q4: 0 	 
23	 	 	61.1	 	 Q3: 0 	  Q9: 2 	  Q4: 1 	  Q5: 2 	  Q2: 0 	  Q7: 1 	  Q0: 3 	 
24	 	 	24.3	 	 Q4: 2 	  Q5: 0 	  Q9: 0 	  Q3: 0 	  Q7: 1 	 
25	 	 	26.7	 	 Q0: 3 	  Q9: 3 	  Q4: 3 	  Q7: 1 	  Q5: 3 	  Q8: 1 	  Q6: 0 	  Q3: 1 	 
26	 	 	23.1	 	 Q8: 2 	  Q9: 3 	  Q1: 1 	  Q3: 1 	  Q4: 3 	 
27	 	 	86.0	 	 Q0: 0 	  Q4: 2 	  Q2: 1 	  Q7: 2 	  Q9: 1 	  Q5: 3 	  Q6: 1 	  Q3: 0 	  Q1: 0 	 
28	 	 	61.5	 	 Q2: 2 	  Q6: 2 	 
29	 	 	90.2	 	 Q3: 1 	  Q1: 1 	  Q8: 3 	 
30	 	 	73.1	 	 Q5: 2 	  Q9: 0 	  Q7: 1 	  Q0: 2 	  Q6: 0 	 
31	 	 	22.7	 	 Q7: 0 	  Q8: 1 	  Q6: 3 	  Q9: 3 	  Q3: 3 	 
32	 	 	68.7	 	 Q7: 0 	  Q8: 0 	  Q3: 1 	  Q5: 0 	 
33	 	 	25.0	 	 Q9: 3 	  Q8: 1 	  Q4: 2 	  Q5: 2 	  Q1: 3 	  Q3: 1 	  Q7: 3 	  Q2: 2 	 
34	 	 	61.5	 	 Q3: 3 	  Q8: 1 	  Q2: 0 	  Q6: 2 	 
35	 	 	65.6	 	 Q9: 3 	  Q3: 1 	  Q1: 1 	  Q0: 3 	  Q6: 1 	 
36	 	 	64.6	 	 Q1: 3 	  Q3: 1 	  Q0: 2 	  Q9: 0 	  Q2: 3 	  Q4: 0 	 
37	 	 	69.5	 	 Q1: 1 	  Q8: 1 	  Q0: 1 	  Q3: 1 	  Q6: 1 	  Q7: 1 	  Q5: 1 	  Q4: 0 	 
38	 	 	28.4	 	 Q4: 2 	  Q9: 1 	  Q7: 3 	  Q8: 0 	  Q2: 2 	  Q3: 0 	  Q0: 2 	  Q5: 1 	  Q6: 0 	 
39	 	 	80.4	 	 Q0: 0 	  Q1: 1 	  Q6: 1 	  Q9: 2 	  Q7: 2 	  Q3: 1 	  Q4: 2 	 
40	 	 	72.9	 	 Q9: 1 	  Q7: 2 	  Q4: 0 	  Q1: 0 	  Q8: 1 	  Q6: 1 	  Q0: 2 	  Q3: 3 	  Q2: 2 	 
========================================================== 
TaskID 	 Duration 	 Skill 	 Predecessor IDs 
1	36	Q7:	1
2	18	Q9:	2
3	16	Q9:	1
4	39	Q7:	0
5	20	Q0:	3
6	11	Q7:	0
7	11	Q4:	3
8	25	Q1:	0	3
9	18	Q6:	1
10	17	Q7:	1
11	26	Q7:	1
12	20	Q4:	0
13	38	Q0:	1
14	11	Q2:	2	1
15	12	Q5:	0	4
16	8	Q3:	2	13
17	36	Q0:	2	2
18	26	Q3:	2
19	23	Q8:	2
20	18	Q5:	0
21	21	Q7:	0
22	14	Q3:	0
23	10	Q3:	1
24	10	Q7:	0	18
25	28	Q1:	0
26	15	Q7:	1
27	18	Q9:	3
28	22	Q9:	1
29	17	Q0:	1
30	27	Q7:	1
31	12	Q6:	2	18
32	34	Q5:	1
33	18	Q9:	0
34	9	Q4:	2	19
35	14	Q4:	0	22
36	28	Q0:	1	11
37	27	Q1:	2	24
38	10	Q1:	2
39	30	Q4:	2	3
40	13	Q8:	1	15
41	30	Q1:	1
42	35	Q7:	2	23
43	39	Q2:	1	36
44	9	Q5:	3
45	25	Q5:	1
46	17	Q3:	2
47	19	Q1:	3
48	37	Q7:	1
49	32	Q8:	3	45	35
50	36	Q4:	0
51	16	Q9:	1
52	34	Q1:	3
53	33	Q7:	3
54	9	Q2:	0
55	34	Q3:	1	13
56	24	Q5:	0	9	31
57	39	Q1:	0	36
58	10	Q7:	2
59	38	Q8:	1
60	11	Q4:	3	26
61	13	Q3:	0
62	37	Q5:	2	36
63	19	Q9:	0
64	18	Q1:	2
65	28	Q7:	0
66	10	Q5:	0	40
67	15	Q5:	3
68	33	Q2:	1	34	30
69	37	Q5:	0
70	9	Q2:	1
71	32	Q9:	2	62
72	32	Q1:	2
73	13	Q1:	3
74	11	Q9:	2
75	9	Q5:	3
76	24	Q1:	0	31
77	33	Q2:	0	38	63
78	38	Q4:	3	69	2
79	39	Q4:	3
80	38	Q3:	2	27	43
81	16	Q3:	3	26
82	19	Q7:	1	50	11	16
83	24	Q7:	3	67
84	20	Q7:	0	11	14	30
85	27	Q1:	0	8	20
86	10	Q1:	2	77	12
87	16	Q9:	1	80	81
88	28	Q1:	2	51
89	22	Q3:	3	71	75
90	28	Q6:	0
91	11	Q1:	2	16
92	24	Q9:	2	39
93	14	Q8:	3	49	83
94	39	Q3:	2	70	62
95	16	Q1:	0	66
96	19	Q8:	3	88	43
97	30	Q4:	2	18	82	13
98	33	Q6:	3
99	29	Q3:	0
100	28	Q8:	0
========================================================== 